Minimize
  - 13 y_0 - 12 y_1 - 27 y_2 - 14 y_4 - 16 y_5 - 8 y_6 - 6 y_7 - 21 y_8
   - 30 y_9 + 51 x_0_1 + 31 x_0_4 + 56 x_0_5 + 34 x_0_6 + 22 x_0_7
   + 25 x_1_3 + 44 x_1_4 + 20 x_1_5 + 32 x_1_7 + 37 x_1_9 + 52 x_2_6
   + 44 x_2_7 + 113 x_2_9 + 27 x_3_4 + 32 x_3_5 + 17 x_3_6 + 12 x_3_7
   + 41 x_3_8 + 60 x_3_9 + 37 x_4_5 + 44 x_4_6 + 64 x_4_8 + 43 x_5_7
   + 37 x_5_8 + 33 x_5_9 + 12 x_6_7 + 34 x_6_8 + 62 x_6_9 + 45 x_7_8
   + 66 x_8_0 + 36 x_8_9 + 36 x_8_9 + 36 x_8_9 + 36 x_8_9 + 36 x_8_9
   + 36 x_8_9 + 36 x_8_9 + 36 x_8_9 + 36 x_8_9 + 36 x_8_9 + 36 x_8_9
   + 36 x_8_9 + 36 x_8_9 + 36 x_8_9 + 36 x_8_9 + 36 x_8_9 + 36 x_8_9
   + 36 x_8_9 + 36 x_8_9 + 36 x_8_9 + 36 x_8_9 + 36 x_8_9 + 36 x_8_9
   + 36 x_8_9 + 36 x_8_9 + 36 x_8_9 + 36 x_8_9 + 36 x_8_9 + 36 x_8_9
   + 36 x_8_9 + 36 x_8_9 + 36 x_8_9 + 36 x_8_9 + 36 x_8_9 + 36 x_8_9
   + 36 x_8_9 + 36 x_8_9 + 36 x_8_9 + 36 x_8_9 + 36 x_8_9 + 36 x_8_9
   + 36 x_8_9 + 36 x_8_9 + 36 x_8_9 + 36 x_8_9 + 36 x_8_9 + 36 x_8_9
   + 36 x_8_9 + 36 x_8_9 + 36 x_8_9 + 36 x_8_9 + 36 x_8_9 + 36 x_8_9
   + 36 x_8_9 + 36 x_8_9 + 36 x_8_9 + 36 x_8_9 + 36 x_8_9 + 36 x_8_9
   + 36 x_8_9 + 36 x_8_9 + 36 x_8_9 + 36 x_8_9 + 36 x_8_9 + 36 x_8_9
   + 36 x_8_9 + 36 x_8_9 + 36 x_8_9 + 36 x_8_9 + 36 x_8_9 + 36 x_8_9
   + 36 x_8_9 + 36 x_8_9 + 36 x_8_9 + 36 x_8_9 + 36 x_8_9 + 36 x_8_9
   + 36 x_8_9 + 36 x_8_9 + 36 x_8_9 + 36 x_8_9 + 36 x_8_9 + 36 x_8_9
   + 36 x_8_9 + 36 x_8_9 + 36 x_8_9 + 36 x_8_9 + 36 x_8_9 + 36 x_8_9
   + 36 x_8_9 + 36 x_8_9 + 36 x_8_9 + 36 x_8_9 + 36 x_8_9 + 36 x_8_9
   + 36 x_8_9 + 36 x_8_9 + 36 x_8_9 + 36 x_8_9 + 36 x_8_9 + 36 x_8_9
   + 36 x_8_9 + 36 x_8_9 + 36 x_8_9 + 36 x_8_9 + 36 x_8_9 + 36 x_8_9
   + 36 x_8_9 + 36 x_8_9 + 36 x_8_9 + 36 x_8_9 + 36 x_8_9 + 36 x_8_9
   + 36 x_8_9 + 36 x_8_9 + 36 x_8_9 + 36 x_8_9 + 36 x_8_9 + 36 x_8_9
   + 36 x_8_9 + 36 x_8_9 + 36 x_8_9 + 36 x_8_9 + 36 x_8_9 + 36 x_8_9
   + 36 x_8_9 + 36 x_8_9 + 36 x_8_9 + 36 x_8_9 + 36 x_8_9 + 36 x_8_9
   + 36 x_8_9 + 36 x_8_9 + 36 x_8_9 + 36 x_8_9 + 36 x_8_9 + 36 x_8_9
   + 36 x_8_9 + 36 x_8_9 + 36 x_8_9 + 36 x_8_9 + 36 x_8_9 + 36 x_8_9
   + 36 x_8_9 + 36 x_8_9 + 36 x_8_9 + 36 x_8_9 + 36 x_8_9 + 36 x_8_9
   + 36 x_8_9 + 36 x_8_9 + 36 x_8_9 + 36 x_8_9 + 36 x_8_9 + 36 x_8_9
   + 36 x_8_9 + 36 x_8_9 + 36 x_8_9 + 36 x_8_9 + 36 x_8_9 + 36 x_8_9
   + 36 x_8_9 + 36 x_8_9 + 36 x_8_9 + 36 x_8_9 + 36 x_8_9 + 36 x_8_9
   + 36 x_8_9 + 36 x_8_9 + 36 x_8_9 + 36 x_8_9 + 36 x_8_9 + 36 x_8_9
   + 36 x_8_9 + 36 x_8_9 + 36 x_8_9 + 36 x_8_9 + 36 x_8_9 + 36 x_8_9
   + 36 x_8_9 + 36 x_8_9 + 36 x_8_9 + 36 x_8_9 + 36 x_8_9 + 36 x_8_9
   + 36 x_8_9 + 36 x_8_9 + 36 x_8_9 + 36 x_8_9 + 36 x_8_9 + 36 x_8_9
   + 36 x_8_9 + 36 x_8_9 + 36 x_8_9 + 36 x_8_9 + 36 x_8_9 + 36 x_8_9
   + 36 x_8_9 + 36 x_8_9 + 36 x_8_9 + 36 x_8_9 + 36 x_8_9 + 36 x_8_9
   + 36 x_8_9 + 36 x_8_9 + 36 x_8_9 + 36 x_8_9 + 36 x_8_9 + 36 x_8_9
   + 36 x_8_9 + 36 x_8_9 + 36 x_8_9 + 36 x_8_9 + 36 x_8_9 + 36 x_8_9
   + 36 x_8_9 + 36 x_8_9 + 36 x_8_9 + 36 x_8_9 + 36 x_8_9 + 36 x_8_9
   + 36 x_8_9 + 36 x_8_9 + 36 x_8_9 + 36 x_8_9 + 36 x_8_9 + 36 x_8_9
   + 36 x_8_9 + 36 x_8_9 + 36 x_8_9 + 36 x_8_9 + 36 x_8_9 + 36 x_8_9
   + 36 x_8_9 + 36 x_8_9 + 36 x_8_9 + 36 x_8_9 + 36 x_8_9 + 36 x_8_9
   + 36 x_8_9 + 36 x_8_9 + 36 x_8_9 + 36 x_8_9 + 36 x_8_9 + 36 x_8_9
   + 36 x_8_9 + 36 x_8_9 + 36 x_8_9 + 36 x_8_9 + 36 x_8_9 + 36 x_8_9
   + 36 x_8_9 + 36 x_8_9 + 36 x_8_9 + 36 x_8_9 + 36 x_8_9 + 36 x_8_9
   + 36 x_8_9 + 36 x_8_9 + 36 x_8_9 + 36 x_8_9 + 36 x_8_9 + 36 x_8_9
   + 36 x_8_9 + 36 x_8_9 + 36 x_8_9 + 36 x_8_9 + 36 x_8_9 + 36 x_8_9
   + 36 x_8_9 + 36 x_8_9 + 36 x_8_9 + 36 x_8_9 + 36 x_8_9 + 36 x_8_9
   + 36 x_8_9 + 36 x_8_9 + 36 x_8_9 + 36 x_8_9 + 36 x_8_9 + 36 x_8_9
   + 36 x_8_9 + 36 x_8_9 + 36 x_8_9 + 36 x_8_9 + 36 x_8_9 + 147 Constant
Subject To
 c_0: y_2 = 1
 c_1_0: y_0 >= 1
 c_1_1: y_1 >= 1
 c_1_2: y_2 >= 1
 c_1_3: y_3 >= 1
 c_1_4: y_4 >= 1
 c_1_5: y_5 >= 1
 c_1_6: y_6 >= 1
 c_1_7: y_7 >= 1
 c_1_8: y_8 >= 1
 c_1_9: y_9 >= 1
 c_2_0: - 2 y_0 + x_0_1 + x_0_4 + x_0_5 + x_0_6 + x_0_7 + x_8_0 = 0
 c_2_1: - 2 y_1 + x_0_1 + x_1_3 + x_1_4 + x_1_5 + x_1_7 + x_1_9 = 0
 c_2_2: - 2 y_2 + x_2_6 + x_2_7 + x_2_9 = 0
 c_2_3: - 2 y_3 + x_1_3 + x_3_4 + x_3_5 + x_3_6 + x_3_7 + x_3_8 + x_3_9
   = 0
 c_2_4: - 2 y_4 + x_0_4 + x_1_4 + x_3_4 + x_4_5 + x_4_6 + x_4_8 = 0
 c_2_5: - 2 y_5 + x_0_5 + x_1_5 + x_3_5 + x_4_5 + x_5_7 + x_5_8 + x_5_9
   = 0
 c_2_6: - 2 y_6 + x_0_6 + x_2_6 + x_3_6 + x_4_6 + x_6_7 + x_6_8 + x_6_9
   = 0
 c_2_7: - 2 y_7 + x_0_7 + x_1_7 + x_2_7 + x_3_7 + x_5_7 + x_6_7 + x_7_8
   = 0
 c_2_8: - 2 y_8 + x_3_8 + x_4_8 + x_5_8 + x_6_8 + x_7_8 + x_8_0 + 286 x_8_9
   = 0
 c_2_9: - 2 y_9 + x_1_9 + x_2_9 + x_3_9 + x_5_9 + x_6_9 + 286 x_8_9 = 0
Bounds
 Constant = 1
Binaries
 y_0 y_1 y_2 y_3 y_4 y_5 y_6 y_7 y_8 y_9 x_0_1 x_0_4 x_0_5 x_0_6 x_0_7
 x_1_3 x_1_4 x_1_5 x_1_7 x_1_9 x_2_6 x_2_7 x_2_9 x_3_4 x_3_5 x_3_6 x_3_7
 x_3_8 x_3_9 x_4_5 x_4_6 x_4_8 x_5_7 x_5_8 x_5_9 x_6_7 x_6_8 x_6_9 x_7_8
 x_8_0 x_8_9 x_8_9 x_8_9 x_8_9 x_8_9 x_8_9 x_8_9 x_8_9 x_8_9 x_8_9 x_8_9
 x_8_9 x_8_9 x_8_9 x_8_9 x_8_9 x_8_9 x_8_9 x_8_9 x_8_9 x_8_9 x_8_9 x_8_9
 x_8_9 x_8_9 x_8_9 x_8_9 x_8_9 x_8_9 x_8_9 x_8_9 x_8_9 x_8_9 x_8_9 x_8_9
 x_8_9 x_8_9 x_8_9 x_8_9 x_8_9 x_8_9 x_8_9 x_8_9 x_8_9 x_8_9 x_8_9 x_8_9
 x_8_9 x_8_9 x_8_9 x_8_9 x_8_9 x_8_9 x_8_9 x_8_9 x_8_9 x_8_9 x_8_9 x_8_9
 x_8_9 x_8_9 x_8_9 x_8_9 x_8_9 x_8_9 x_8_9 x_8_9 x_8_9 x_8_9 x_8_9 x_8_9
 x_8_9 x_8_9 x_8_9 x_8_9 x_8_9 x_8_9 x_8_9 x_8_9 x_8_9 x_8_9 x_8_9 x_8_9
 x_8_9 x_8_9 x_8_9 x_8_9 x_8_9 x_8_9 x_8_9 x_8_9 x_8_9 x_8_9 x_8_9 x_8_9
 x_8_9 x_8_9 x_8_9 x_8_9 x_8_9 x_8_9 x_8_9 x_8_9 x_8_9 x_8_9 x_8_9 x_8_9
 x_8_9 x_8_9 x_8_9 x_8_9 x_8_9 x_8_9 x_8_9 x_8_9 x_8_9 x_8_9 x_8_9 x_8_9
 x_8_9 x_8_9 x_8_9 x_8_9 x_8_9 x_8_9 x_8_9 x_8_9 x_8_9 x_8_9 x_8_9 x_8_9
 x_8_9 x_8_9 x_8_9 x_8_9 x_8_9 x_8_9 x_8_9 x_8_9 x_8_9 x_8_9 x_8_9 x_8_9
 x_8_9 x_8_9 x_8_9 x_8_9 x_8_9 x_8_9 x_8_9 x_8_9 x_8_9 x_8_9 x_8_9 x_8_9
 x_8_9 x_8_9 x_8_9 x_8_9 x_8_9 x_8_9 x_8_9 x_8_9 x_8_9 x_8_9 x_8_9 x_8_9
 x_8_9 x_8_9 x_8_9 x_8_9 x_8_9 x_8_9 x_8_9 x_8_9 x_8_9 x_8_9 x_8_9 x_8_9
 x_8_9 x_8_9 x_8_9 x_8_9 x_8_9 x_8_9 x_8_9 x_8_9 x_8_9 x_8_9 x_8_9 x_8_9
 x_8_9 x_8_9 x_8_9 x_8_9 x_8_9 x_8_9 x_8_9 x_8_9 x_8_9 x_8_9 x_8_9 x_8_9
 x_8_9 x_8_9 x_8_9 x_8_9 x_8_9 x_8_9 x_8_9 x_8_9 x_8_9 x_8_9 x_8_9 x_8_9
 x_8_9 x_8_9 x_8_9 x_8_9 x_8_9 x_8_9 x_8_9 x_8_9 x_8_9 x_8_9 x_8_9 x_8_9
 x_8_9 x_8_9 x_8_9 x_8_9 x_8_9 x_8_9 x_8_9 x_8_9 x_8_9 x_8_9 x_8_9 x_8_9
 x_8_9 x_8_9 x_8_9 x_8_9 x_8_9 x_8_9 x_8_9 x_8_9 x_8_9 x_8_9 x_8_9 x_8_9
 x_8_9 x_8_9 x_8_9 x_8_9 x_8_9 x_8_9 x_8_9 x_8_9 x_8_9 x_8_9 x_8_9 x_8_9
 x_8_9 x_8_9 x_8_9 x_8_9 x_8_9 x_8_9 x_8_9 x_8_9 x_8_9 x_8_9 x_8_9 x_8_9
 x_8_9 x_8_9 x_8_9 x_8_9 x_8_9 x_8_9 x_8_9 x_8_9 x_8_9 x_8_9 x_8_9
End
